NAME: toy20_uniform_seed202510284
TYPE: TSP
DIMENSION: 20
EDGE_WEIGHT_TYPE: EUC_2D
NODE_COORD_SECTION
1 69 340
2 198 978
3 201 347
4 417 334
5 708 400
6 575 548
7 703 312
8 596 535
9 28 530
10 863 977
11 930 650
12 113 581
13 584 620
14 463 437
15 872 562
16 826 27
17 244 118
18 857 204
19 242 772
20 871 873
EOF
